c nIsolatedPIs 0
c maxPI 32
p cnf 171 418
c gate 33 13 -29 0
13 -33 0
-29 -33 0
-13 29 33 0
c gate 34 -12 28 0
-12 -34 0
28 -34 0
12 -28 34 0
c gate 35 10 -26 0
10 -35 0
-26 -35 0
-10 26 35 0
c gate 36 -9 25 0
-9 -36 0
25 -36 0
9 -25 36 0
c gate 37 -8 24 0
-8 -37 0
24 -37 0
8 -24 37 0
c gate 38 7 -23 0
7 -38 0
-23 -38 0
-7 23 38 0
c gate 39 -7 23 0
-7 -39 0
23 -39 0
7 -23 39 0
c gate 40 6 -22 0
6 -40 0
-22 -40 0
-6 22 40 0
c gate 41 -2 18 0
-2 -41 0
18 -41 0
2 -18 41 0
c gate 42 -1 17 0
-1 -42 0
17 -42 0
1 -17 42 0
c gate 43 -41 -42 0
-41 -43 0
-42 -43 0
41 42 43 0
c gate 44 2 -18 0
2 -44 0
-18 -44 0
-2 18 44 0
c gate 45 3 -19 0
3 -45 0
-19 -45 0
-3 19 45 0
c gate 46 -44 -45 0
-44 -46 0
-45 -46 0
44 45 46 0
c gate 47 -43 46 0
-43 -47 0
46 -47 0
43 -46 47 0
c gate 48 -3 19 0
-3 -48 0
19 -48 0
3 -19 48 0
c gate 49 -4 20 0
-4 -49 0
20 -49 0
4 -20 49 0
c gate 50 -48 -49 0
-48 -50 0
-49 -50 0
48 49 50 0
c gate 51 -47 50 0
-47 -51 0
50 -51 0
47 -50 51 0
c gate 52 5 -21 0
5 -52 0
-21 -52 0
-5 21 52 0
c gate 53 4 -20 0
4 -53 0
-20 -53 0
-4 20 53 0
c gate 54 -52 -53 0
-52 -54 0
-53 -54 0
52 53 54 0
c gate 55 -51 54 0
-51 -55 0
54 -55 0
51 -54 55 0
c gate 56 -6 22 0
-6 -56 0
22 -56 0
6 -22 56 0
c gate 57 -5 21 0
-5 -57 0
21 -57 0
5 -21 57 0
c gate 58 -56 -57 0
-56 -58 0
-57 -58 0
56 57 58 0
c gate 59 -55 58 0
-55 -59 0
58 -59 0
55 -58 59 0
c gate 60 -40 -59 0
-40 -60 0
-59 -60 0
40 59 60 0
c gate 61 -39 -60 0
-39 -61 0
-60 -61 0
39 60 61 0
c gate 62 -38 -61 0
-38 -62 0
-61 -62 0
38 61 62 0
c gate 63 -37 -62 0
-37 -63 0
-62 -63 0
37 62 63 0
c gate 64 8 -24 0
8 -64 0
-24 -64 0
-8 24 64 0
c gate 65 9 -25 0
9 -65 0
-25 -65 0
-9 25 65 0
c gate 66 -64 -65 0
-64 -66 0
-65 -66 0
64 65 66 0
c gate 67 -63 66 0
-63 -67 0
66 -67 0
63 -66 67 0
c gate 68 -36 -67 0
-36 -68 0
-67 -68 0
36 67 68 0
c gate 69 -35 -68 0
-35 -69 0
-68 -69 0
35 68 69 0
c gate 70 -10 26 0
-10 -70 0
26 -70 0
10 -26 70 0
c gate 71 -11 27 0
-11 -71 0
27 -71 0
11 -27 71 0
c gate 72 -70 -71 0
-70 -72 0
-71 -72 0
70 71 72 0
c gate 73 -69 72 0
-69 -73 0
72 -73 0
69 -72 73 0
c gate 74 11 -27 0
11 -74 0
-27 -74 0
-11 27 74 0
c gate 75 12 -28 0
12 -75 0
-28 -75 0
-12 28 75 0
c gate 76 -74 -75 0
-74 -76 0
-75 -76 0
74 75 76 0
c gate 77 -73 76 0
-73 -77 0
76 -77 0
73 -76 77 0
c gate 78 -34 -77 0
-34 -78 0
-77 -78 0
34 77 78 0
c gate 79 -33 -78 0
-33 -79 0
-78 -79 0
33 78 79 0
c gate 80 -13 29 0
-13 -80 0
29 -80 0
13 -29 80 0
c gate 81 -14 30 0
-14 -81 0
30 -81 0
14 -30 81 0
c gate 82 -80 -81 0
-80 -82 0
-81 -82 0
80 81 82 0
c gate 83 -79 82 0
-79 -83 0
82 -83 0
79 -82 83 0
c gate 84 15 -31 0
15 -84 0
-31 -84 0
-15 31 84 0
c gate 85 14 -30 0
14 -85 0
-30 -85 0
-14 30 85 0
c gate 86 84 -85 0
84 -86 0
-85 -86 0
-84 85 86 0
c gate 87 -83 86 0
-83 -87 0
86 -87 0
83 -86 87 0
c gate 88 16 -32 0
16 -88 0
-32 -88 0
-16 32 88 0
c gate 89 -16 32 0
-16 -89 0
32 -89 0
16 -32 89 0
c gate 90 -88 -89 0
-88 -90 0
-89 -90 0
88 89 90 0
c gate 91 87 -90 0
87 -91 0
-90 -91 0
-87 90 91 0
c gate 92 -9 -25 0
-9 -92 0
-25 -92 0
9 25 92 0
c gate 93 -37 -64 0
-37 -93 0
-64 -93 0
37 64 93 0
c gate 94 -7 -23 0
-7 -94 0
-23 -94 0
7 23 94 0
c gate 95 7 23 0
7 -95 0
23 -95 0
-7 -23 95 0
c gate 96 -6 -22 0
-6 -96 0
-22 -96 0
6 22 96 0
c gate 97 6 22 0
6 -97 0
22 -97 0
-6 -22 97 0
c gate 98 5 21 0
5 -98 0
21 -98 0
-5 -21 98 0
c gate 99 -4 -20 0
-4 -99 0
-20 -99 0
4 20 99 0
c gate 100 4 20 0
4 -100 0
20 -100 0
-4 -20 100 0
c gate 101 3 19 0
3 -101 0
19 -101 0
-3 -19 101 0
c gate 102 -100 -101 0
-100 -102 0
-101 -102 0
100 101 102 0
c gate 103 -2 -18 0
-2 -103 0
-18 -103 0
2 18 103 0
c gate 104 1 17 0
1 -104 0
17 -104 0
-1 -17 104 0
c gate 105 2 18 0
2 -105 0
18 -105 0
-2 -18 105 0
c gate 106 -104 -105 0
-104 -106 0
-105 -106 0
104 105 106 0
c gate 107 -45 -48 0
-45 -107 0
-48 -107 0
45 48 107 0
c gate 108 -106 -107 0
-106 -108 0
-107 -108 0
106 107 108 0
c gate 109 -103 108 0
-103 -109 0
108 -109 0
103 -108 109 0
c gate 110 102 -109 0
102 -110 0
-109 -110 0
-102 109 110 0
c gate 111 -99 -110 0
-99 -111 0
-110 -111 0
99 110 111 0
c gate 112 -98 -111 0
-98 -112 0
-111 -112 0
98 111 112 0
c gate 113 -5 -21 0
-5 -113 0
-21 -113 0
5 21 113 0
c gate 114 -112 -113 0
-112 -114 0
-113 -114 0
112 113 114 0
c gate 115 -97 -114 0
-97 -115 0
-114 -115 0
97 114 115 0
c gate 116 -96 -115 0
-96 -116 0
-115 -116 0
96 115 116 0
c gate 117 -95 -116 0
-95 -117 0
-116 -117 0
95 116 117 0
c gate 118 -94 -117 0
-94 -118 0
-117 -118 0
94 117 118 0
c gate 119 -93 118 0
-93 -119 0
118 -119 0
93 -118 119 0
c gate 120 8 24 0
8 -120 0
24 -120 0
-8 -24 120 0
c gate 121 -119 -120 0
-119 -121 0
-120 -121 0
119 120 121 0
c gate 122 -92 -121 0
-92 -122 0
-121 -122 0
92 121 122 0
c gate 123 102 -108 0
102 -123 0
-108 -123 0
-102 108 123 0
c gate 124 -96 -99 0
-96 -124 0
-99 -124 0
96 99 124 0
c gate 125 -97 -113 0
-97 -125 0
-113 -125 0
97 113 125 0
c gate 126 124 125 0
124 -126 0
125 -126 0
-124 -125 126 0
c gate 127 -123 126 0
-123 -127 0
126 -127 0
123 -126 127 0
c gate 128 -116 -127 0
-116 -128 0
-127 -128 0
116 127 128 0
c gate 129 -94 -128 0
-94 -129 0
-128 -129 0
94 128 129 0
c gate 130 -95 -129 0
-95 -130 0
-129 -130 0
95 129 130 0
c gate 131 -93 -130 0
-93 -131 0
-130 -131 0
93 130 131 0
c gate 132 -120 -131 0
-120 -132 0
-131 -132 0
120 131 132 0
c gate 133 -36 -65 0
-36 -133 0
-65 -133 0
36 65 133 0
c gate 134 -35 -70 0
-35 -134 0
-70 -134 0
35 70 134 0
c gate 135 -133 -134 0
-133 -135 0
-134 -135 0
133 134 135 0
c gate 136 -71 -74 0
-71 -136 0
-74 -136 0
71 74 136 0
c gate 137 -34 -75 0
-34 -137 0
-75 -137 0
34 75 137 0
c gate 138 -136 -137 0
-136 -138 0
-137 -138 0
136 137 138 0
c gate 139 135 138 0
135 -139 0
138 -139 0
-135 -138 139 0
c gate 140 -81 -85 0
-81 -140 0
-85 -140 0
81 85 140 0
c gate 141 -90 -140 0
-90 -141 0
-140 -141 0
90 140 141 0
c gate 142 -33 -80 0
-33 -142 0
-80 -142 0
33 80 142 0
c gate 143 -15 31 0
-15 -143 0
31 -143 0
15 -31 143 0
c gate 144 -84 -143 0
-84 -144 0
-143 -144 0
84 143 144 0
c gate 145 -142 -144 0
-142 -145 0
-144 -145 0
142 144 145 0
c gate 146 141 145 0
141 -146 0
145 -146 0
-141 -145 146 0
c gate 147 139 146 0
139 -147 0
146 -147 0
-139 -146 147 0
c gate 148 -132 147 0
-132 -148 0
147 -148 0
132 -147 148 0
c gate 149 -122 148 0
-122 -149 0
148 -149 0
122 -148 149 0
c gate 150 93 130 0
93 -150 0
130 -150 0
-93 -130 150 0
c gate 151 -131 -150 0
-131 -151 0
-150 -151 0
131 150 151 0
c gate 152 93 -118 0
93 -152 0
-118 -152 0
-93 118 152 0
c gate 153 -119 -152 0
-119 -153 0
-152 -153 0
119 152 153 0
c gate 154 -151 153 0
-151 -154 0
153 -154 0
151 -153 154 0
c gate 155 -149 154 0
-149 -155 0
154 -155 0
149 -154 155 0
c gate 156 151 -153 0
151 -156 0
-153 -156 0
-151 153 156 0
c gate 157 104 105 0
104 -157 0
105 -157 0
-104 -105 157 0
c gate 158 112 127 0
112 -158 0
127 -158 0
-112 -127 158 0
c gate 159 -157 -158 0
-157 -159 0
-158 -159 0
157 158 159 0
c gate 160 -38 -39 0
-38 -160 0
-39 -160 0
38 39 160 0
c gate 161 158 160 0
158 -161 0
160 -161 0
-158 -160 161 0
c gate 162 -159 -161 0
-159 -162 0
-161 -162 0
159 161 162 0
c gate 163 -156 162 0
-156 -163 0
162 -163 0
156 -162 163 0
c gate 164 -155 163 0
-155 -164 0
163 -164 0
155 -163 164 0
c gate 165 -91 -164 0
-91 -165 0
-164 -165 0
91 164 165 0
c gate 166 87 90 0
87 -166 0
90 -166 0
-87 -90 166 0
c gate 167 103 104 0
103 -167 0
104 -167 0
-103 -104 167 0
c gate 168 -149 167 0
-149 -168 0
167 -168 0
149 -167 168 0
c gate 169 -166 -168 0
-166 -169 0
-168 -169 0
166 168 169 0
c gate 170 -165 -169 0
-165 -170 0
-169 -170 0
165 169 170 0
c gate 171 87 -170 0
87 -171 0
-170 -171 0
-87 170 171 0
c PO
171 0
